
===== New CPLEX run =====
Instance: /home/yorig/tuner/mpils-tests/instances/miplib/easy/lotsize.mps
Config: /scratch/yorig/mpils-results-grid-seconds-5-no-mip-start/easy/16proc/seed-3/4_lotsize_seed-3_20260502_223218/expansion/config_param_CPXPARAM_MIP_Strategy_VariableSelect_-1_iter_1.prm
========================

Selected objective sense:  MINIMIZE
Selected objective  name:  R1921
Selected RHS        name:  B
Selected bound      name:  BOUND
Version identifier: 22.1.2.0 | 2024-11-26 | 0edbb82fd
CPXPARAM_Threads                                 8
CPXPARAM_Parallel                                1
CPXPARAM_MIP_Cuts_Cliques                        2
CPXPARAM_MIP_Strategy_VariableSelect             -1
CPXPARAM_MIP_Cuts_FlowCovers                     2
CPXPARAM_MIP_Cuts_Implied                        1
CPXPARAM_MIP_Limits_GomoryCand                   800
CPXPARAM_MIP_Cuts_Gomory                         -1
CPXPARAM_MIP_Cuts_PathCut                        1
CPXPARAM_MIP_Cuts_MIRCut                         2
CPXPARAM_MIP_Cuts_Disjunctive                    2
CPXPARAM_Emphasis_MIP                            1
CPXPARAM_TimeLimit                               5
Tried aggregator 1 time.
MIP Presolve eliminated 595 rows and 0 columns.
MIP Presolve added 1190 rows and 0 columns.
MIP Presolve modified 10 coefficients.
Reduced MIP has 2515 rows, 2985 columns, and 7755 nonzeros.
Reduced MIP has 1195 binaries, 0 generals, 0 SOSs, and 0 indicators.
Presolve time = 0.00 sec. (4.53 ticks)
Probing fixed 0 vars, tightened 5487 bounds.
Probing time = 0.01 sec. (18.38 ticks)
Tried aggregator 2 times.
Detecting symmetries...
MIP Presolve modified 1206 coefficients.
Aggregator did 10 substitutions.
Reduced MIP has 2505 rows, 2975 columns, and 7735 nonzeros.
Reduced MIP has 1195 binaries, 0 generals, 0 SOSs, and 0 indicators.
Presolve time = 0.00 sec. (6.66 ticks)
Probing fixed 0 vars, tightened 2401 bounds.
Probing time = 0.00 sec. (6.41 ticks)
Clique table members: 190.
MIP emphasis: integer feasibility.
MIP search method: dynamic search.
Parallel mode: deterministic, using up to 8 threads.
Root relaxation solution time = 0.01 sec. (9.71 ticks)

        Nodes                                         Cuts/
   Node  Left     Objective  IInf  Best Integer    Best Bound    ItCnt     Gap

      0     0   348385.3466   472                 348385.3466      882         
      0     0   583577.4049   435                   Cuts: 726     1819         
      0     0   818290.4051   692                   Cuts: 726     2653         
*     0+    0                       1.01740e+07   818290.4051            91.96%
*     0+    0                      7973370.0000   818290.4051            89.74%
      0     0   947113.9594   686  7973370.0000     Cuts: 726     3332   88.12%
Detecting symmetries...
      0     2   947113.9594   686  7973370.0000   949700.7247     3332   88.09%
Elapsed time = 0.45 sec. (613.17 ticks, tree = 0.02 MB, solutions = 2)
    145   125  1063316.0952   691  7973370.0000   949700.7247    12862   88.09%
    844   696  1274420.5174   534  7973370.0000   949700.7247    20883   88.09%
   1678  1472  1387065.1506   384  7973370.0000   949700.7247    28405   88.09%

Performing restart 1

Repeating presolve.
Tried aggregator 1 time.
MIP Presolve modified 1240 coefficients.
Reduced MIP has 2505 rows, 2975 columns, and 7735 nonzeros.
Reduced MIP has 1195 binaries, 0 generals, 0 SOSs, and 0 indicators.
Presolve time = 0.00 sec. (3.86 ticks)
Tried aggregator 1 time.
MIP Presolve modified 1017 coefficients.
Reduced MIP has 2505 rows, 2975 columns, and 7735 nonzeros.
Reduced MIP has 1195 binaries, 0 generals, 0 SOSs, and 0 indicators.
Presolve time = 0.00 sec. (5.12 ticks)
Represolve time = 0.02 sec. (18.78 ticks)
   1738     0  1129834.5846   744  7973370.0000     Cuts: 726    34839   85.83%
   1738     0  1206794.0203   729  7973370.0000     Cuts: 726    35637   84.86%
   1738     0  1257851.9999   715  7973370.0000     Cuts: 726    36296   84.22%
   1738     2  1257851.9999   715  7973370.0000  1257851.9999    36296   84.22%
   1764    28  1295941.0849   639  7973370.0000  1258971.4664    36930   84.21%
   1798    62  1296791.7135   602  7973370.0000  1258971.4664    37439   84.21%
   1837   101  1306526.5056   569  7973370.0000  1258971.4664    38044   84.21%
   1856   110  1337086.7587   733  7973370.0000  1258971.4664    39430   84.21%
   1862   119  1337030.6038   776  7973370.0000  1258971.4664    39898   84.21%
   2041   217  1340731.6749   735  7973370.0000  1268682.3270    70878   84.09%
Elapsed time = 4.28 sec. (5379.54 ticks, tree = 0.25 MB, solutions = 2)
Starting limited solution polishing.
*  2191+  371                      4860334.0000  1268682.3270            73.90%
*  2193+  371                      4611534.0000  1268682.3270            72.49%
*  2197+  371                      3115364.0000  1268682.3270            59.28%
*  2203+  371                      2876299.0000  1268682.3270            55.89%
*  2420+  505                      2641996.0000  1268682.3270            51.98%
*  2423+  505                      2601553.0000  1268682.3270            51.23%

Clique cuts applied:  1
Cover cuts applied:  22
Implied bound cuts applied:  14
Flow cuts applied:  801
Mixed integer rounding cuts applied:  1044
Flow path cuts applied:  57
Multi commodity flow cuts applied:  22
Lift and project cuts applied:  19
Disjunctive cuts applied:  0
Cone linearizations applied:  0

Root node processing (before b&c):
  Real time             =    0.45 sec. (610.95 ticks)
Parallel b&c, 8 threads:
  Real time             =    4.56 sec. (5501.39 ticks)
  Sync time (average)   =    0.55 sec.
  Wait time (average)   =    0.01 sec.
                          ------------
Total (root+branch&cut) =    5.00 sec. (6112.34 ticks)
Gap: 51.23%
Upper bound: 2.60155e+06
Lower bound: 1.26868e+06
End of CPLEX run. Time: 5.00344 seconds
